[368, 312, 376, 294, 344, 240, 264, 192, 232, 212, 102, 102, 80, 92, 84, 80, 86, 74, 80, 68, 72, 70, 66, 68, 66, 64, 68, 66, 66, 66, 66, 66, 64, 66, 66, 66, 66, 66, 64, 66, 66, 64, 64, 64, 64, 66, 64, 64, 66, 66, 64, 64, 64, 64, 64, 64, 64, 64, 64, 64, 64, 66, 64, 64, 64, 66, 64, 66, 66, 64, 64, 64, 64, 64, 64, 64, 66, 64, 64, 66, 64, 64, 64, 64, 66, 64, 64, 64, 64, 64, 66, 64, 66, 64, 64, 64, 64, 66, 66, 64, 64, 64, 66, 64, 64, 64, 64, 64, 64, 64, 64, 64, 64, 66, 66, 66, 64, 64, 64, 64, 64, 66, 66, 66, 66, 66, 66, 64, 64, 64, 64, 66, 66, 66, 64, 64, 66, 66, 66, 66, 64, 64, 64, 64, 64, 64, 64, 64, 64, 64, 64, 64, 64, 64, 64, 64, 64, 64, 66, 66, 64, 64, 66, 66, 66, 66, 64, 64, 66, 64, 64, 66, 64, 66, 64, 64, 64, 64, 64, 66, 64, 64, 64, 64, 64, 64, 64, 66, 64, 64, 64, 64, 66, 66, 64, 66, 66, 66, 64, 64]